data;
set K:= K1 K2 K3 K4 K5 K6 K7 ;

set F:= F1 F2 ;

set Q:= Q1 Q2 ;

param T:= 45;
param V: 
	K1  K2  K3  K4  K5  K6  K7  :=
Q1	1   1   1   1   0   0   0   
Q2	0   0   0   0   1   1   1   
; # if resorce k is of type q

param TF:= 
K1 6
K2 6
K3 6
K4 6
K5 12
K6 12
K7 12
; # number of continuous time slots resource can fly

param TR:= 
K1 2
K2 2
K3 2
K4 2
K5 4
K6 4
K7 4
; #  number of continuous time slots resource k needs to rest between flights

param P:= 
K1 36
K2 36
K3 36
K4 36
K5 36
K6 36
K7 36
; #  number of continuous time slots a pilot can be present including rest times for resource k 

param N:= 
K1 4
K2 4
K3 4
K4 4
K5 2
K6 2
K7 2
; # max number of flights resource k can fly in the total time period

param A: 
	K1  K2  K3  K4  K5  K6  K7  :=
1	1   1   1   1   1   1   1   
2	1   1   1   1   1   1   1   
3	1   1   1   1   1   1   1   
4	1   1   1   1   1   1   1   
5	1   1   1   1   1   1   1   
6	1   1   1   1   1   1   1   
7	1   1   1   1   1   1   1   
8	1   1   1   1   1   1   1   
9	1   1   1   1   1   1   1   
10	1   1   1   1   1   1   1   
11	1   1   1   1   1   1   1   
12	1   1   1   1   1   1   1   
13	1   1   1   1   1   1   1   
14	1   1   1   1   1   1   1   
15	1   1   1   1   1   1   1   
16	1   1   1   1   1   1   1   
17	1   1   1   1   1   1   1   
18	1   1   1   1   1   1   1   
19	1   1   1   1   1   1   1   
20	1   1   1   1   1   1   1   
21	1   1   1   1   1   1   1   
22	1   1   1   1   1   1   1   
23	1   1   1   1   1   1   1   
24	1   1   1   1   1   1   1   
25	1   1   1   1   1   1   1   
26	1   1   1   1   1   1   1   
27	1   1   1   1   1   1   1   
28	1   1   1   1   1   1   1   
29	1   1   1   1   1   1   1   
30	1   1   1   1   1   1   1   
31	1   1   1   1   1   1   1   
32	1   1   1   1   1   1   1   
33	1   1   1   1   1   1   1   
34	1   1   1   1   1   1   1   
35	1   1   1   1   1   1   1   
36	1   1   1   1   1   1   1   
37	1   1   1   1   1   1   1   
38	1   1   1   1   1   1   1   
39	1   1   1   1   1   1   1   
40	1   1   1   1   1   1   1   
41	1   1   1   1   1   1   1   
42	1   1   1   1   1   1   1   
43	1   1   1   1   1   1   1   
44	1   1   1   1   1   1   1   
45	1   1   1   1   1   1   1   
; # availability of resorce k in time slot t

param B: 
	F1  F2  :=
Q1	0   0   
Q2	0   0   
; # if front f requires resources of type q

param U: 
	F1  F2  :=
K1	0   0   
K2	0   0   
K3	0   0   
K4	0   0   
K5	1   1   
K6	2   2   
K7	0   0   
; # transit time of resource

param C:= 
K1 900
K2 900
K3 1500
K4 4500
K5 5500
K6 5500
K7 5500
; #  water capacity of resource k

param S:= 
F1 10
F2 7
; # max number of resources that can fly at front f in the same time slot

param D:= 

[*,*,F1 ]:  K1    K2    K3    K4    K5    K6    K7    :=
1           1.64  1.64  1.64  1.30  0.98  0.98  0.98  
2           1.64  1.64  1.64  1.30  0.98  0.98  0.98  
3           1.64  1.64  1.64  1.30  0.98  0.98  0.98  
4           1.64  1.64  1.64  1.30  0.98  0.98  0.98  
5           1.64  1.64  1.64  1.30  0.98  0.98  0.98  
6           1.64  1.64  1.64  1.30  0.98  0.98  0.98  
7           1.64  1.64  1.64  1.30  0.98  0.98  0.98  
8           1.64  1.64  1.64  1.30  0.98  0.98  0.98  
9           1.64  1.64  1.64  1.30  0.98  0.98  0.98  
10          1.64  1.64  1.64  1.30  0.98  0.98  0.98  
11          1.64  1.64  1.64  1.30  0.98  0.98  0.98  
12          1.64  1.64  1.64  1.30  0.98  0.98  0.98  
13          1.64  1.64  1.64  1.30  0.98  0.98  0.98  
14          1.64  1.64  1.64  1.30  0.98  0.98  0.98  
15          1.64  1.64  1.64  1.30  0.98  0.98  0.98  
16          1.64  1.64  1.64  1.30  0.98  0.98  0.98  
17          1.64  1.64  1.64  1.30  0.98  0.98  0.98  
18          1.64  1.64  1.64  1.30  0.98  0.98  0.98  
19          1.64  1.64  1.64  1.30  0.98  0.98  0.98  
20          1.64  1.64  1.64  1.30  0.98  0.98  0.98  
21          1.64  1.64  1.64  1.30  0.98  0.98  0.98  
22          1.64  1.64  1.64  1.30  0.98  0.98  0.98  
23          1.64  1.64  1.64  1.30  0.98  0.98  0.98  
24          1.64  1.64  1.64  1.30  0.98  0.98  0.98  
25          1.55  1.55  1.55  1.24  0.93  0.93  0.93  
26          1.55  1.55  1.55  1.24  0.93  0.93  0.93  
27          1.55  1.55  1.55  1.24  0.93  0.93  0.93  
28          1.55  1.55  1.55  1.24  0.93  0.93  0.93  
29          1.55  1.55  1.55  1.24  0.93  0.93  0.93  
30          1.55  1.55  1.55  1.24  0.93  0.93  0.93  
31          1.55  1.55  1.55  1.24  0.93  0.93  0.93  
32          1.55  1.55  1.55  1.24  0.93  0.93  0.93  
33          1.55  1.55  1.55  1.24  0.93  0.93  0.93  
34          1.64  1.64  1.64  1.30  0.98  0.98  0.98  
35          1.64  1.64  1.64  1.30  0.98  0.98  0.98  
36          1.64  1.64  1.64  1.30  0.98  0.98  0.98  
37          1.64  1.64  1.64  1.30  0.98  0.98  0.98  
38          1.64  1.64  1.64  1.30  0.98  0.98  0.98  
39          1.64  1.64  1.64  1.30  0.98  0.98  0.98  
40          1.64  1.64  1.64  1.30  0.98  0.98  0.98  
41          1.64  1.64  1.64  1.30  0.98  0.98  0.98  
42          1.64  1.64  1.64  1.30  0.98  0.98  0.98  
43          1.64  1.64  1.64  1.30  0.98  0.98  0.98  
44          1.64  1.64  1.64  1.30  0.98  0.98  0.98  
45          1.64  1.64  1.64  1.30  0.98  0.98  0.98  

[*,*,F2 ]:  K1    K2    K3    K4    K5    K6    K7    :=
1           1.82  1.82  1.82  1.45  1.09  1.09  1.09  
2           1.82  1.82  1.82  1.45  1.09  1.09  1.09  
3           1.82  1.82  1.82  1.45  1.09  1.09  1.09  
4           1.82  1.82  1.82  1.45  1.09  1.09  1.09  
5           1.82  1.82  1.82  1.45  1.09  1.09  1.09  
6           1.82  1.82  1.82  1.45  1.09  1.09  1.09  
7           1.82  1.82  1.82  1.45  1.09  1.09  1.09  
8           1.82  1.82  1.82  1.45  1.09  1.09  1.09  
9           1.82  1.82  1.82  1.45  1.09  1.09  1.09  
10          1.82  1.82  1.82  1.45  1.09  1.09  1.09  
11          1.82  1.82  1.82  1.45  1.09  1.09  1.09  
12          1.82  1.82  1.82  1.45  1.09  1.09  1.09  
13          1.82  1.82  1.82  1.45  1.09  1.09  1.09  
14          1.82  1.82  1.82  1.45  1.09  1.09  1.09  
15          1.82  1.82  1.82  1.45  1.09  1.09  1.09  
16          1.82  1.82  1.82  1.45  1.09  1.09  1.09  
17          1.82  1.82  1.82  1.45  1.09  1.09  1.09  
18          1.82  1.82  1.82  1.45  1.09  1.09  1.09  
19          1.82  1.82  1.82  1.45  1.09  1.09  1.09  
20          1.82  1.82  1.82  1.45  1.09  1.09  1.09  
21          1.82  1.82  1.82  1.45  1.09  1.09  1.09  
22          1.82  1.82  1.82  1.45  1.09  1.09  1.09  
23          1.82  1.82  1.82  1.45  1.09  1.09  1.09  
24          1.82  1.82  1.82  1.45  1.09  1.09  1.09  
25          1.73  1.73  1.73  1.38  1.04  1.04  1.04  
26          1.73  1.73  1.73  1.38  1.04  1.04  1.04  
27          1.73  1.73  1.73  1.38  1.04  1.04  1.04  
28          1.73  1.73  1.73  1.38  1.04  1.04  1.04  
29          1.73  1.73  1.73  1.38  1.04  1.04  1.04  
30          1.73  1.73  1.73  1.38  1.04  1.04  1.04  
31          1.73  1.73  1.73  1.38  1.04  1.04  1.04  
32          1.73  1.73  1.73  1.38  1.04  1.04  1.04  
33          1.73  1.73  1.73  1.38  1.04  1.04  1.04  
34          1.82  1.82  1.82  1.45  1.09  1.09  1.09  
35          1.82  1.82  1.82  1.45  1.09  1.09  1.09  
36          1.82  1.82  1.82  1.45  1.09  1.09  1.09  
37          1.82  1.82  1.82  1.45  1.09  1.09  1.09  
38          1.82  1.82  1.82  1.45  1.09  1.09  1.09  
39          1.82  1.82  1.82  1.45  1.09  1.09  1.09  
40          1.82  1.82  1.82  1.45  1.09  1.09  1.09  
41          1.82  1.82  1.82  1.45  1.09  1.09  1.09  
42          1.82  1.82  1.82  1.45  1.09  1.09  1.09  
43          1.82  1.82  1.82  1.45  1.09  1.09  1.09  
44          1.82  1.82  1.82  1.45  1.09  1.09  1.09  
45          1.82  1.82  1.82  1.45  1.09  1.09  1.09  
; # downloads resource k can do at front f in time t if intermediate time slot

param E:= 

[*,*,F1 ]:  K1    K2    K3    K4    K5    K6    K7    :=
1           0.64  0.13  0.18  0.38  0.15  0.00  0.27  
2           0.64  0.13  0.18  0.38  0.15  0.00  0.27  
3           0.64  0.13  0.18  0.38  0.15  0.00  0.27  
4           0.64  0.13  0.18  0.38  0.15  0.00  0.27  
5           0.64  0.13  0.18  0.38  0.15  0.00  0.27  
6           0.64  0.13  0.18  0.38  0.15  0.00  0.27  
7           0.64  0.13  0.18  0.38  0.15  0.00  0.27  
8           0.64  0.13  0.18  0.38  0.15  0.00  0.27  
9           0.64  0.13  0.18  0.38  0.15  0.00  0.27  
10          0.64  0.13  0.18  0.38  0.15  0.00  0.27  
11          0.64  0.13  0.18  0.38  0.15  0.00  0.27  
12          0.64  0.13  0.18  0.38  0.15  0.00  0.27  
13          0.64  0.13  0.18  0.38  0.15  0.00  0.27  
14          0.64  0.13  0.18  0.38  0.15  0.00  0.27  
15          0.64  0.13  0.18  0.38  0.15  0.00  0.27  
16          0.64  0.13  0.18  0.38  0.15  0.00  0.27  
17          0.64  0.13  0.18  0.38  0.15  0.00  0.27  
18          0.64  0.13  0.18  0.38  0.15  0.00  0.27  
19          0.64  0.13  0.18  0.38  0.15  0.00  0.27  
20          0.64  0.13  0.18  0.38  0.15  0.00  0.27  
21          0.64  0.13  0.18  0.38  0.15  0.00  0.27  
22          0.64  0.13  0.18  0.38  0.15  0.00  0.27  
23          0.64  0.13  0.18  0.38  0.15  0.00  0.27  
24          0.64  0.13  0.18  0.38  0.15  0.00  0.27  
25          0.61  0.12  0.17  0.36  0.14  0.00  0.26  
26          0.61  0.12  0.17  0.36  0.14  0.00  0.26  
27          0.61  0.12  0.17  0.36  0.14  0.00  0.26  
28          0.61  0.12  0.17  0.36  0.14  0.00  0.26  
29          0.61  0.12  0.17  0.36  0.14  0.00  0.26  
30          0.61  0.12  0.17  0.36  0.14  0.00  0.26  
31          0.61  0.12  0.17  0.36  0.14  0.00  0.26  
32          0.61  0.12  0.17  0.36  0.14  0.00  0.26  
33          0.61  0.12  0.17  0.36  0.14  0.00  0.26  
34          0.64  0.13  0.18  0.38  0.15  0.00  0.27  
35          0.64  0.13  0.18  0.38  0.15  0.00  0.27  
36          0.64  0.13  0.18  0.38  0.15  0.00  0.27  
37          0.64  0.13  0.18  0.38  0.15  0.00  0.27  
38          0.64  0.13  0.18  0.38  0.15  0.00  0.27  
39          0.64  0.13  0.18  0.38  0.15  0.00  0.27  
40          0.64  0.13  0.18  0.38  0.15  0.00  0.27  
41          0.64  0.13  0.18  0.38  0.15  0.00  0.27  
42          0.64  0.13  0.18  0.38  0.15  0.00  0.27  
43          0.64  0.13  0.18  0.38  0.15  0.00  0.27  
44          0.64  0.13  0.18  0.38  0.15  0.00  0.27  
45          0.64  0.13  0.18  0.38  0.15  0.00  0.27  

[*,*,F2 ]:  K1    K2    K3    K4    K5    K6    K7    :=
1           0.71  0.11  0.29  0.46  0.25  0.03  0.29  
2           0.71  0.11  0.29  0.46  0.25  0.03  0.29  
3           0.71  0.11  0.29  0.46  0.25  0.03  0.29  
4           0.71  0.11  0.29  0.46  0.25  0.03  0.29  
5           0.71  0.11  0.29  0.46  0.25  0.03  0.29  
6           0.71  0.11  0.29  0.46  0.25  0.03  0.29  
7           0.71  0.11  0.29  0.46  0.25  0.03  0.29  
8           0.71  0.11  0.29  0.46  0.25  0.03  0.29  
9           0.71  0.11  0.29  0.46  0.25  0.03  0.29  
10          0.71  0.11  0.29  0.46  0.25  0.03  0.29  
11          0.71  0.11  0.29  0.46  0.25  0.03  0.29  
12          0.71  0.11  0.29  0.46  0.25  0.03  0.29  
13          0.71  0.11  0.29  0.46  0.25  0.03  0.29  
14          0.71  0.11  0.29  0.46  0.25  0.03  0.29  
15          0.71  0.11  0.29  0.46  0.25  0.03  0.29  
16          0.71  0.11  0.29  0.46  0.25  0.03  0.29  
17          0.71  0.11  0.29  0.46  0.25  0.03  0.29  
18          0.71  0.11  0.29  0.46  0.25  0.03  0.29  
19          0.71  0.11  0.29  0.46  0.25  0.03  0.29  
20          0.71  0.11  0.29  0.46  0.25  0.03  0.29  
21          0.71  0.11  0.29  0.46  0.25  0.03  0.29  
22          0.71  0.11  0.29  0.46  0.25  0.03  0.29  
23          0.71  0.11  0.29  0.46  0.25  0.03  0.29  
24          0.71  0.11  0.29  0.46  0.25  0.03  0.29  
25          0.67  0.10  0.28  0.44  0.24  0.03  0.28  
26          0.67  0.10  0.28  0.44  0.24  0.03  0.28  
27          0.67  0.10  0.28  0.44  0.24  0.03  0.28  
28          0.67  0.10  0.28  0.44  0.24  0.03  0.28  
29          0.67  0.10  0.28  0.44  0.24  0.03  0.28  
30          0.67  0.10  0.28  0.44  0.24  0.03  0.28  
31          0.67  0.10  0.28  0.44  0.24  0.03  0.28  
32          0.67  0.10  0.28  0.44  0.24  0.03  0.28  
33          0.67  0.10  0.28  0.44  0.24  0.03  0.28  
34          0.71  0.11  0.29  0.46  0.25  0.03  0.29  
35          0.71  0.11  0.29  0.46  0.25  0.03  0.29  
36          0.71  0.11  0.29  0.46  0.25  0.03  0.29  
37          0.71  0.11  0.29  0.46  0.25  0.03  0.29  
38          0.71  0.11  0.29  0.46  0.25  0.03  0.29  
39          0.71  0.11  0.29  0.46  0.25  0.03  0.29  
40          0.71  0.11  0.29  0.46  0.25  0.03  0.29  
41          0.71  0.11  0.29  0.46  0.25  0.03  0.29  
42          0.71  0.11  0.29  0.46  0.25  0.03  0.29  
43          0.71  0.11  0.29  0.46  0.25  0.03  0.29  
44          0.71  0.11  0.29  0.46  0.25  0.03  0.29  
45          0.71  0.11  0.29  0.46  0.25  0.03  0.29  
; # downloads resource k can do at front f in time t if starting or ending flight

param W: 
	F1        F2        :=
1	318.73    318.73    
2	1274.94   1274.94   
3	1274.94   1274.94   
4	1274.94   1274.94   
5	1274.94   1274.94   
6	1274.94   1274.94   
7	1274.94   1274.94   
8	1274.94   1274.94   
9	1274.94   1274.94   
10	1274.94   1274.94   
11	1274.94   1274.94   
12	1274.94   1274.94   
13	1274.94   1274.94   
14	1274.94   1274.94   
15	1274.94   1274.94   
16	1274.94   1274.94   
17	1274.94   1274.94   
18	1274.94   1274.94   
19	1274.94   1274.94   
20	1274.94   1274.94   
21	1274.94   1274.94   
22	1274.94   1274.94   
23	1274.94   1274.94   
24	1274.94   1274.94   
25	1274.94   1274.94   
26	1274.94   1274.94   
27	1274.94   1274.94   
28	1274.94   1274.94   
29	1274.94   1274.94   
30	1274.94   1274.94   
31	1274.94   1274.94   
32	1274.94   1274.94   
33	1274.94   1274.94   
34	1274.94   1274.94   
35	1274.94   1274.94   
36	1274.94   1274.94   
37	1274.94   1274.94   
38	1274.94   1274.94   
39	1274.94   1274.94   
40	1274.94   1274.94   
41	1274.94   1274.94   
42	1274.94   1274.94   
43	1274.94   1274.94   
44	1274.94   1274.94   
45	318.73    318.73    
; # water needed at front f in time slot t

param M := 100000000; 

param a1:= 10000000;

param a2:= 100;

param a3:= 0.0001;
